125 126 127 128 129 130 131 132 133 134 135 136 137 138 139 140 141 151 150 149 152 148 147 142 143 144 146 145 158 157 153 156 159 155 154 165 164 166 167 163 168 162 160 161 113 112 111 110 109 108 173 174 175 172 170 171 169 176 177 178 187 188 186 182 179 180 181 183 185 184 194 195 196 197 198 199 200 201 202 204 203 208 207 206 205 209 210 211 212 213 214 215 217 216 246 247 245 244 243 240 239 238 237 236 235 234 233 232 223 224 222 221 220 218 219 193 192 191 190 226 225 189 227 228 229 230 231 533 532 531 530 489 488 534 535 487 486 485 484 536 537 539 538 540 544 543 541 542 107 114 115 116 117 121 120 119 118 106 105 104 103 547 546 545 548 549 560 561 562 563 564 565 566 567 475 476 477 478 479 480 481 482 483 493 492 491 490 529 528 527 512 513 511 510 509 516 515 514 517 520 521 522 523 526 525 524 494 518 519 497 496 464 463 462 461 460 459 458 457 456 454 439 440 441 442 443 444 445 446 447 448 449 450 451 501 500 453 452 499 498 502 503 504 506 507 508 302 301 303 304 307 505 308 309 310 311 312 313 305 306 318 317 319 320 321 297 298 299 300 241 242 248 249 250 251 252 254 253 255 256 257 260 261 259 258 262 263 264 265 266 267 270 269 268 271 272 273 274 275 292 291 293 294 296 295 330 331 332 288 289 290 276 277 278 279 282 281 280 287 286 285 284 283 334 335 333 336 337 338 339 340 341 343 342 366 329 328 327 326 325 324 323 322 373 374 316 314 315 377 378 380 379 376 375 395 396 371 372 370 369 368 367 365 344 345 346 364 363 361 362 347 348 350 349 358 359 360 401 402 403 400 399 398 397 394 393 391 392 381 390 389 388 387 385 408 407 406 405 404 409 384 383 386 382 425 424 422 418 410 411 412 356 357 355 354 353 352 351 415 416 414 413 417 419 420 421 423 426 427 428 429 431 430 432 433 434 435 436 437 438 455 3 2 1 4 0 5 6 572 573 571 466 467 468 469 465 470 495 471 472 473 474 570 569 568 20 19 18 17 8 7 9 10 11 16 15 14 13 12 23 22 21 24 25 26 27 28 29 31 30 32 36 37 38 35 33 34 558 559 550 551 101 102 100 99 98 97 96 95 94 93 92 91 46 45 555 556 554 553 552 557 41 40 39 42 43 44 47 48 49 54 53 52 50 51 84 85 86 87 90 89 88 77 78 79 80 81 57 82 83 55 56 58 59 60 61 63 62 64 76 75 74 73 72 65 66 67 68 69 70 71 123 122 124